; benchmark generated from python API
(set-info :status unknown)
(declare-fun x_months () (_ BitVec 32))
(declare-fun x_beta () (_ BitVec 32))
(assert
 (bvsle (_ bv4294966096 32) x_months))
(assert
 (bvsge (_ bv1199 32) x_months))
(assert
 (bvsle (_ bv0 32) x_beta))
(assert
 (let ((?x56316 (bvadd x_months (_ bv24003 32))))
 (let ((?x11708 (bvsub ?x56316 (bvmul (bvsdiv (bvsub ?x56316 (_ bv1 32)) (_ bv12 32)) (_ bv12 32)))))
 (let ((?x56033 (ite (or (= ?x11708 (_ bv4 32)) (= ?x11708 (_ bv6 32)) (= ?x11708 (_ bv9 32)) (= ?x11708 (_ bv11 32))) (_ bv30 32) (_ bv31 32))))
 (let (($x16771 (and (= (bvsmod (bvsdiv (bvsub ?x56316 (_ bv1 32)) (_ bv12 32)) (_ bv4 32)) (_ bv0 32)) (and (distinct (bvsmod (bvsdiv (bvsub ?x56316 (_ bv1 32)) (_ bv12 32)) (_ bv100 32)) (_ bv0 32)) true))))
 (let ((?x55049 (ite (or $x16771 (= (bvsmod (bvsdiv (bvsub ?x56316 (_ bv1 32)) (_ bv12 32)) (_ bv400 32)) (_ bv0 32))) (_ bv29 32) (_ bv28 32))))
 (bvslt x_beta (ite (= ?x11708 (_ bv2 32)) ?x55049 ?x56033))))))))
(assert
 (let (($x19345 (bvsle (_ bv27 32) x_beta)))
 (or (bvsgt x_months (bvsub (bvadd (bvmul (_ bv2020 32) (_ bv12 32)) (_ bv2 32)) (_ bv24003 32))) (and (= x_months (bvsub (bvadd (bvmul (_ bv2020 32) (_ bv12 32)) (_ bv2 32)) (_ bv24003 32))) $x19345))))
(assert
 (let (($x54262 (and (= x_months (bvsub (bvadd (bvmul (_ bv2020 32) (_ bv12 32)) (_ bv3 32)) (_ bv24003 32))) (bvsge (_ bv0 32) x_beta))))
 (or (bvslt x_months (bvsub (bvadd (bvmul (_ bv2020 32) (_ bv12 32)) (_ bv3 32)) (_ bv24003 32))) $x54262)))
(assert
 (let ((?x6068 (bvadd x_beta (_ bv1 32))))
(let ((?x38566 (bvsdiv (bvsub (bvadd (bvadd x_months (_ bv0 32)) (_ bv24003 32)) (_ bv1 32)) (_ bv12 32))))
(let ((?x36311 (bvadd (bvadd x_months (_ bv0 32)) (_ bv24003 32))))
(let ((?x63647 (bvsub ?x36311 (bvmul ?x38566 (_ bv12 32)))))
(let ((?x25252 (ite (or (= ?x63647 (_ bv4 32)) (= ?x63647 (_ bv6 32)) (= ?x63647 (_ bv9 32)) (= ?x63647 (_ bv11 32))) (_ bv30 32) (_ bv31 32))))
(let (($x26995 (or (and (= (bvsmod ?x38566 (_ bv4 32)) (_ bv0 32)) (and (distinct (bvsmod ?x38566 (_ bv100 32)) (_ bv0 32)) true)) (= (bvsmod ?x38566 (_ bv400 32)) (_ bv0 32)))))
(let ((?x54427 (ite (= ?x63647 (_ bv2 32)) (ite $x26995 (_ bv29 32) (_ bv28 32)) ?x25252)))
(let ((?x87694 (ite (bvsgt (_ bv1 32) ?x6068) (_ bv1 32) (ite (bvsgt ?x6068 ?x54427) ?x54427 ?x6068))))
(let ((?x38905 (ite (bvsgt (_ bv1 32) ?x87694) (_ bv1 32) (ite (bvsgt ?x87694 ?x54427) ?x54427 ?x87694))))
(let ((?x25285 (ite (= (_ bv2 32) ?x63647) (ite $x26995 (_ bv31 32) (_ bv31 32)) (ite (= (_ bv1 32) ?x63647) (ite $x26995 (_ bv0 32) (_ bv0 32)) (_ bv0 32)))))
(let ((?x1313 (ite (= (_ bv4 32) ?x63647) (ite $x26995 (_ bv91 32) (_ bv90 32)) (ite (= (_ bv3 32) ?x63647) (ite $x26995 (_ bv60 32) (_ bv59 32)) ?x25285))))
(let ((?x89137 (ite (= (_ bv6 32) ?x63647) (ite $x26995 (_ bv152 32) (_ bv151 32)) (ite (= (_ bv5 32) ?x63647) (ite $x26995 (_ bv121 32) (_ bv120 32)) ?x1313))))
(let ((?x18938 (ite (= (_ bv8 32) ?x63647) (ite $x26995 (_ bv213 32) (_ bv212 32)) (ite (= (_ bv7 32) ?x63647) (ite $x26995 (_ bv182 32) (_ bv181 32)) ?x89137))))
(let ((?x46243 (ite (= (_ bv10 32) ?x63647) (ite $x26995 (_ bv274 32) (_ bv273 32)) (ite (= (_ bv9 32) ?x63647) (ite $x26995 (_ bv244 32) (_ bv243 32)) ?x18938))))
(let ((?x71830 (ite (= (_ bv12 32) ?x63647) (ite $x26995 (_ bv335 32) (_ bv334 32)) (ite (= (_ bv11 32) ?x63647) (ite $x26995 (_ bv305 32) (_ bv304 32)) ?x46243))))
(let ((?x41706 (bvadd (bvmul (_ bv365 32) (bvsub ?x38566 (_ bv1 32))) (bvsdiv (bvsub ?x38566 (_ bv1 32)) (_ bv4 32)))))
(let ((?x60326 (bvadd (bvsub ?x41706 (bvsdiv (bvsub ?x38566 (_ bv1 32)) (_ bv100 32))) (bvsdiv (bvsub ?x38566 (_ bv1 32)) (_ bv400 32)))))
(let ((?x9807 (bvadd (bvadd (bvsub (bvadd (bvadd ?x60326 ?x71830) (bvsub ?x38905 (_ bv1 32))) (_ bv730179 32)) (_ bv1 32)) (_ bv730179 32))))
(let ((?x84774 (bvsmod ?x9807 (_ bv146097 32))))
(let ((?x41207 (bvsdiv ?x84774 (_ bv36524 32))))
(let ((?x76255 (ite (bvsle (_ bv4 32) ?x41207) (_ bv3 32) ?x41207)))
(let ((?x24195 (bvsub ?x84774 (bvmul ?x76255 (_ bv36524 32)))))
(let ((?x88734 (bvsmod ?x24195 (_ bv1461 32))))
(let ((?x29537 (bvsdiv ?x88734 (_ bv365 32))))
(let ((?x88705 (ite (bvsle (_ bv4 32) ?x29537) (_ bv3 32) ?x29537)))
(let ((?x24719 (bvadd (bvadd (bvmul (bvsdiv ?x9807 (_ bv146097 32)) (_ bv400 32)) (bvmul ?x76255 (_ bv100 32))) (bvmul (bvsdiv ?x24195 (_ bv1461 32)) (_ bv4 32)))))
(let ((?x65798 (bvadd (bvadd ?x24719 ?x88705) (_ bv1 32))))
(let (($x25393 (or (and (= (bvsmod ?x65798 (_ bv4 32)) (_ bv0 32)) (and (distinct (bvsmod ?x65798 (_ bv100 32)) (_ bv0 32)) true)) (= (bvsmod ?x65798 (_ bv400 32)) (_ bv0 32)))))
(let ((?x73443 (bvsub ?x88734 (bvmul ?x88705 (_ bv365 32)))))
(let ((?x86417 (ite $x25393 (_ bv31 32) (_ bv31 32))))
(let (($x74356 (bvsge ?x73443 ?x86417)))
(let ((?x47912 (ite $x74356 (bvadd (bvsub ?x73443 ?x86417) (_ bv1 32)) (bvadd (bvsub ?x73443 (ite $x25393 (_ bv0 32) (_ bv0 32))) (_ bv1 32)))))
(let ((?x24211 (ite $x25393 (_ bv60 32) (_ bv59 32))))
(let (($x64764 (bvsge ?x73443 ?x24211)))
(let ((?x91141 (ite $x25393 (_ bv91 32) (_ bv90 32))))
(let (($x41216 (bvsge ?x73443 ?x91141)))
(let ((?x53330 (ite $x41216 (bvadd (bvsub ?x73443 ?x91141) (_ bv1 32)) (ite $x64764 (bvadd (bvsub ?x73443 ?x24211) (_ bv1 32)) ?x47912))))
(let ((?x73406 (ite $x25393 (_ bv121 32) (_ bv120 32))))
(let (($x88660 (bvsge ?x73443 ?x73406)))
(let ((?x65054 (ite $x25393 (_ bv152 32) (_ bv151 32))))
(let (($x73134 (bvsge ?x73443 ?x65054)))
(let ((?x37855 (ite $x73134 (bvadd (bvsub ?x73443 ?x65054) (_ bv1 32)) (ite $x88660 (bvadd (bvsub ?x73443 ?x73406) (_ bv1 32)) ?x53330))))
(let ((?x88978 (ite $x25393 (_ bv182 32) (_ bv181 32))))
(let (($x27587 (bvsge ?x73443 ?x88978)))
(let ((?x73379 (ite $x25393 (_ bv213 32) (_ bv212 32))))
(let (($x80436 (bvsge ?x73443 ?x73379)))
(let ((?x2873 (ite $x80436 (bvadd (bvsub ?x73443 ?x73379) (_ bv1 32)) (ite $x27587 (bvadd (bvsub ?x73443 ?x88978) (_ bv1 32)) ?x37855))))
(let ((?x23276 (ite $x25393 (_ bv244 32) (_ bv243 32))))
(let (($x42220 (bvsge ?x73443 ?x23276)))
(let ((?x63809 (ite $x25393 (_ bv274 32) (_ bv273 32))))
(let (($x41535 (bvsge ?x73443 ?x63809)))
(let ((?x32302 (ite $x41535 (bvadd (bvsub ?x73443 ?x63809) (_ bv1 32)) (ite $x42220 (bvadd (bvsub ?x73443 ?x23276) (_ bv1 32)) ?x2873))))
(let ((?x64360 (ite $x25393 (_ bv305 32) (_ bv304 32))))
(let (($x3238 (bvsge ?x73443 ?x64360)))
(let ((?x1835 (ite $x25393 (_ bv335 32) (_ bv334 32))))
(let (($x34642 (bvsge ?x73443 ?x1835)))
(let ((?x31345 (ite $x34642 (bvadd (bvsub ?x73443 ?x1835) (_ bv1 32)) (ite $x3238 (bvadd (bvsub ?x73443 ?x64360) (_ bv1 32)) ?x32302))))
(let (($x5406 (= (_ bv1 32) (_ bv0 32))))
(let ((?x25301 (bvsub (bvadd (bvmul (_ bv2020 32) (_ bv12 32)) (_ bv3 32)) (_ bv24003 32))))
(let ((?x3851 (ite $x73134 (_ bv6 32) (ite $x88660 (_ bv5 32) (ite $x41216 (_ bv4 32) (ite $x64764 (_ bv3 32) (ite $x74356 (_ bv2 32) (_ bv1 32))))))))
(let ((?x29344 (ite $x3238 (_ bv11 32) (ite $x41535 (_ bv10 32) (ite $x42220 (_ bv9 32) (ite $x80436 (_ bv8 32) (ite $x27587 (_ bv7 32) ?x3851)))))))
(let ((?x5410 (ite $x34642 (_ bv12 32) ?x29344)))
(let ((?x88693 (bvsub (bvadd (bvmul (ite $x5406 ?x38566 ?x65798) (_ bv12 32)) (ite $x5406 ?x63647 ?x5410)) (_ bv24003 32))))
(and (= ?x88693 ?x25301) (= (_ bv0 32) (bvsub (ite $x5406 ?x38905 ?x31345) (_ bv1 32))))))))))))))))))))))))))))))))))))))))))))))))))))))))))))))))))))
(check-sat)
